p tw 167 199
1 2
2 80
3 14
4 5
4 149
5 6
6 7
7 8
8 149
9 10
10 11
11 68
12 13
13 15
14 25
15 68
16 17
17 18
18 19
19 20
20 21
20 23
21 22
22 23
22 28
23 24
24 26
25 36
25 101
26 27
27 28
28 29
29 30
30 31
31 32
32 33
32 66
33 34
34 35
35 37
36 47
37 38
38 39
39 40
40 41
41 42
42 43
43 44
43 66
44 45
45 30
46 48
47 58
47 101
48 49
49 50
49 51
50 75
51 52
52 53
53 54
54 55
55 56
55 59
56 57
57 59
57 64
58 69
59 60
60 61
61 62
62 63
63 64
64 65
65 75
66 67
67 68
68 70
69 77
70 71
70 146
71 72
72 73
73 74
74 146
75 76
77 78
78 79
79 81
80 91
81 82
82 83
83 84
84 85
84 87
85 86
86 87
86 69
87 88
88 89
89 90
89 92
90 92
91 102
92 93
93 94
94 95
94 96
95 96
96 97
97 98
98 99
99 100
100 146
101 103
102 113
103 104
104 105
104 106
105 106
105 108
106 107
107 108
108 109
109 110
110 111
110 146
111 112
112 114
112 146
113 124
114 115
115 116
115 9
116 117
117 118
117 16
118 119
119 120
120 121
120 133
121 122
122 123
122 139
123 125
124 135
125 126
125 12
126 127
127 128
127 144
128 129
129 130
129 144
130 131
131 132
131 139
132 46
133 134
134 136
135 146
136 137
136 146
137 138
138 146
139 140
140 141
141 142
141 146
142 143
143 146
144 145
145 147
146 157
147 148
148 149
149 150
150 151
150 156
151 152
152 153
153 154
153 162
154 155
155 162
156 158
157 3
158 159
159 160
160 161
160 162
161 162
162 163
163 164
164 165
165 166
166 167
166 68
167 4
